p cnf 208 286
-1 2 119 180 -184 -185 -186 -188 -204 -205 -206 -207 0 
-2 1 119 180 -184 -185 -186 -188 -204 -205 -206 -207 0 
-3 181 -180 -184 -185 -186 -188 -204 -205 -206 -207 -4 0 
-4 182 -180 -184 -185 -186 -188 -204 -205 -206 -207 -3 0 
-4 -5 183 -180 -184 -185 -186 -188 -204 -205 -206 -207 -6 0 
-6 184 -180 -185 -186 -188 -204 -205 -206 -207 0 
-7 183 -180 -184 -185 -186 -188 -204 -205 -206 -207 -6 0 
-8 -9 -6 181 -180 -184 -185 -186 -188 -204 -205 -206 -207 -4 0 
-10 39 180 -184 -185 -186 -188 -204 -205 -206 -207 0 
-11 15 32 33 35 40 50 52 56 58 86 87 133 165 -12 183 -180 -184 -185 -186 -188 -204 -205 -206 -207 -6 0 
-13 48 55 62 73 76 126 148 159 172 175 180 -184 -185 -186 -188 -204 -205 -206 -207 0 
-14 27 34 41 61 69 95 100 102 128 131 134 137 138 151 184 -180 -185 -186 -188 -204 -205 -206 -207 0 
-15 11 32 33 35 40 50 52 56 58 86 87 133 165 180 -184 -185 -186 -188 -204 -205 -206 -207 0 
-6 181 -180 -184 -185 -186 -188 -204 -205 -206 -207 -4 0 
-8 -7 181 -180 -184 -185 -186 -188 -204 -205 -206 -207 -4 0 
-9 -16 -4 182 -180 -184 -185 -186 -188 -204 -205 -206 -207 -3 0 
-8 -16 -17 182 -180 -184 -185 -186 -188 -204 -205 -206 -207 -3 0 
-3 184 -180 -185 -186 -188 -204 -205 -206 -207 0 
-18 -19 -3 181 -180 -184 -185 -186 -188 -204 -205 -206 -207 -4 0 
-20 146 184 -180 -185 -186 -188 -204 -205 -206 -207 0 
-21 -16 -19 -22 135 -23 183 -180 -184 -185 -186 -188 -204 -205 -206 -207 -6 0 
-24 185 -180 -184 -186 -188 -204 -205 -206 -207 0 
-6 -12 182 -180 -184 -185 -186 -188 -204 -205 -206 -207 -3 0 
-4 -25 88 -19 183 -180 -184 -185 -186 -188 -204 -205 -206 -207 -6 0 
-26 65 70 149 162 -27 14 34 41 61 69 95 100 102 128 131 134 137 138 151 184 -180 -185 -186 -188 -204 -205 -206 -207 0 
-25 88 -28 66 101 184 -180 -185 -186 -188 -204 -205 -206 -207 0 
-29 30 130 132 186 -180 -184 -185 -188 -204 -205 -206 -207 0 
-30 29 130 132 186 -180 -184 -185 -188 -204 -205 -206 -207 0 
-31 187 -43 -68 -180 -184 -185 -186 -188 -204 -205 -206 -207 0 
-32 11 15 33 35 40 50 52 56 58 86 87 133 165 180 -184 -185 -186 -188 -204 -205 -206 -207 0 
-33 11 15 32 35 40 50 52 56 58 86 87 133 165 188 -180 -184 -185 -186 -204 -205 -206 -207 0 
-34 14 27 41 61 69 95 100 102 128 131 134 137 138 151 188 -180 -184 -185 -186 -204 -205 -206 -207 0 
-35 11 15 32 33 40 50 52 56 58 86 87 133 165 -36 74 80 96 107 160 188 -180 -184 -185 -186 -204 -205 -206 -207 0 
-9 -4 182 -180 -184 -185 -186 -188 -204 -205 -206 -207 -3 0 
-8 -9 -4 182 -180 -184 -185 -186 -188 -204 -205 -206 -207 -3 0 
-17 183 -180 -184 -185 -186 -188 -204 -205 -206 -207 -6 0 
-37 -4 182 -180 -184 -185 -186 -188 -204 -205 -206 -207 -3 0 
-38 184 -180 -185 -186 -188 -204 -205 -206 -207 0 
-39 10 -3 181 -180 -184 -185 -186 -188 -204 -205 -206 -207 -4 0 
-25 88 -3 183 -180 -184 -185 -186 -188 -204 -205 -206 -207 -6 0 
-26 65 70 149 162 184 -180 -185 -186 -188 -204 -205 -206 -207 0 
-40 11 15 32 33 35 50 52 56 58 86 87 133 165 188 -180 -184 -185 -186 -204 -205 -206 -207 0 
-16 -3 181 -180 -184 -185 -186 -188 -204 -205 -206 -207 -4 0 
-4 -16 -19 -12 183 -180 -184 -185 -186 -188 -204 -205 -206 -207 -6 0 
-25 88 -4 183 -180 -184 -185 -186 -188 -204 -205 -206 -207 -6 0 
-9 -3 181 -180 -184 -185 -186 -188 -204 -205 -206 -207 -4 0 
-18 -9 -4 182 -180 -184 -185 -186 -188 -204 -205 -206 -207 -3 0 
-18 -39 10 -4 182 -180 -184 -185 -186 -188 -204 -205 -206 -207 -3 0 
-41 14 27 34 61 69 95 100 102 128 131 134 137 138 151 180 -184 -185 -186 -188 -204 -205 -206 -207 0 
-7 181 -180 -184 -185 -186 -188 -204 -205 -206 -207 -4 0 
-18 -9 -3 181 -180 -184 -185 -186 -188 -204 -205 -206 -207 -4 0 
-42 46 180 -184 -185 -186 -188 -204 -205 -206 -207 0 
-43 68 184 -180 -185 -186 -188 -204 -205 -206 -207 0 
-16 184 -180 -185 -186 -188 -204 -205 -206 -207 0 
-16 182 -180 -184 -185 -186 -188 -204 -205 -206 -207 -3 0 
-21 184 -180 -185 -186 -188 -204 -205 -206 -207 0 
-4 183 -180 -184 -185 -186 -188 -204 -205 -206 -207 -6 0 
-44 181 -180 -184 -185 -186 -188 -204 -205 -206 -207 -4 0 
-45 184 -180 -185 -186 -188 -204 -205 -206 -207 0 
-25 88 182 -180 -184 -185 -186 -188 -204 -205 -206 -207 -3 0 
-46 42 -39 10 -3 181 -180 -184 -185 -186 -188 -204 -205 -206 -207 -4 0 
-47 183 -180 -184 -185 -186 -188 -204 -205 -206 -207 -6 0 
-38 -48 13 55 62 73 76 126 148 159 172 175 184 -180 -185 -186 -188 -204 -205 -206 -207 0 
-3 -19 -18 -16 181 -180 -184 -185 -186 -188 -204 -205 -206 -207 -4 0 
-49 180 -184 -185 -186 -188 -204 -205 -206 -207 0 
-18 -50 11 15 32 33 35 40 52 56 58 86 87 133 165 183 -180 -184 -185 -186 -188 -204 -205 -206 -207 -6 0 
-51 -52 11 15 32 33 35 40 50 56 58 86 87 133 165 188 -180 -184 -185 -186 -204 -205 -206 -207 0 
-37 -4 -19 182 -180 -184 -185 -186 -188 -204 -205 -206 -207 -3 0 
-37 -3 181 -180 -184 -185 -186 -188 -204 -205 -206 -207 -4 0 
-18 -53 184 -180 -185 -186 -188 -204 -205 -206 -207 0 
-37 -4 -19 -54 183 -180 -184 -185 -186 -188 -204 -205 -206 -207 -6 0 
-37 -9 -6 182 -180 -184 -185 -186 -188 -204 -205 -206 -207 -3 0 
-18 -55 13 48 62 73 76 126 148 159 172 175 182 -180 -184 -185 -186 -188 -204 -205 -206 -207 -3 0 
-17 180 -184 -185 -186 -188 -204 -205 -206 -207 0 
-46 42 -56 11 15 32 33 35 40 50 52 58 86 87 133 165 182 -180 -184 -185 -186 -188 -204 -205 -206 -207 -3 0 
-57 -55 13 48 62 73 76 126 148 159 172 175 182 -180 -184 -185 -186 -188 -204 -205 -206 -207 -3 0 
-18 -58 11 15 32 33 35 40 50 52 56 86 87 133 165 184 -180 -185 -186 -188 -204 -205 -206 -207 0 
-59 176 186 -180 -184 -185 -188 -204 -205 -206 -207 0 
-60 182 -180 -184 -185 -186 -188 -204 -205 -206 -207 -3 0 
-61 14 27 34 41 69 95 100 102 128 131 134 137 138 151 184 -180 -185 -186 -188 -204 -205 -206 -207 0 
-62 13 48 55 73 76 126 148 159 172 175 189 -180 -184 -185 -186 -188 -204 -205 -206 -207 -26 -65 -70 -149 -162 0 
-63 -37 -64 178 -65 26 70 149 162 187 -43 -68 -180 -184 -185 -186 -188 -204 -205 -206 -207 0 
-66 28 101 180 -184 -185 -186 -188 -204 -205 -206 -207 0 
-65 26 70 149 162 180 -184 -185 -186 -188 -204 -205 -206 -207 0 
-7 187 -43 -68 -180 -184 -185 -186 -188 -204 -205 -206 -207 0 
-67 180 -184 -185 -186 -188 -204 -205 -206 -207 0 
-68 43 180 -184 -185 -186 -188 -204 -205 -206 -207 0 
-69 14 27 34 41 61 95 100 102 128 131 134 137 138 151 190 -180 -184 -185 -186 -188 -204 -205 -206 -207 -20 -146 0 
-15 11 32 33 35 40 50 52 56 58 86 87 133 165 -67 180 -184 -185 -186 -188 -204 -205 -206 -207 0 
-10 39 187 -43 -68 -180 -184 -185 -186 -188 -204 -205 -206 -207 0 
-38 -70 26 65 149 162 180 -184 -185 -186 -188 -204 -205 -206 -207 0 
-71 -72 183 -180 -184 -185 -186 -188 -204 -205 -206 -207 -6 0 
-71 -46 42 -3 183 -180 -184 -185 -186 -188 -204 -205 -206 -207 -6 0 
-73 13 48 55 62 76 126 148 159 172 175 -74 36 80 96 107 160 191 -89 -180 -184 -185 -186 -188 -204 -205 -206 -207 0 
-4 -75 182 -180 -184 -185 -186 -188 -204 -205 -206 -207 -3 0 
-45 -76 13 48 55 62 73 126 148 159 172 175 184 -180 -185 -186 -188 -204 -205 -206 -207 0 
-16 -17 -3 -37 -4 183 -180 -184 -185 -186 -188 -204 -205 -206 -207 -6 0 
-18 -11 15 32 33 35 40 50 52 56 58 86 87 133 165 -77 -16 182 -180 -184 -185 -186 -188 -204 -205 -206 -207 -3 0 
-78 -62 13 48 55 73 76 126 148 159 172 175 184 -180 -185 -186 -188 -204 -205 -206 -207 0 
-6 -78 184 -180 -185 -186 -188 -204 -205 -206 -207 0 
-8 -19 -3 181 -180 -184 -185 -186 -188 -204 -205 -206 -207 -4 0 
-37 -39 10 -4 182 -180 -184 -185 -186 -188 -204 -205 -206 -207 -3 0 
-79 183 -180 -184 -185 -186 -188 -204 -205 -206 -207 -6 0 
-80 36 74 96 107 160 190 -180 -184 -185 -186 -188 -204 -205 -206 -207 -20 -146 0 
-81 183 -180 -184 -185 -186 -188 -204 -205 -206 -207 -6 0 
-82 192 -180 -184 -185 -186 -188 -204 -205 -206 -207 0 
-14 27 34 41 61 69 95 100 102 128 131 134 137 138 151 -83 112 118 127 184 -180 -185 -186 -188 -204 -205 -206 -207 0 
-18 -19 183 -180 -184 -185 -186 -188 -204 -205 -206 -207 -6 0 
-62 13 48 55 73 76 126 148 159 172 175 -84 158 183 -180 -184 -185 -186 -188 -204 -205 -206 -207 -6 0 
-85 182 -180 -184 -185 -186 -188 -204 -205 -206 -207 -3 0 
-86 11 15 32 33 35 40 50 52 56 58 87 133 165 190 -180 -184 -185 -186 -188 -204 -205 -206 -207 -20 -146 0 
-87 11 15 32 33 35 40 50 52 56 58 86 133 165 193 -147 -180 -184 -185 -186 -188 -204 -205 -206 -207 0 
-88 25 183 -180 -184 -185 -186 -188 -204 -205 -206 -207 -6 0 
-10 39 194 -180 -184 -185 -186 -188 -204 -205 -206 -207 0 
-42 46 195 -180 -184 -185 -186 -188 -204 -205 -206 -207 0 
-89 187 -43 -68 -180 -184 -185 -186 -188 -204 -205 -206 -207 0 
-18 183 -180 -184 -185 -186 -188 -204 -205 -206 -207 -6 0 
-2 1 119 180 -184 -185 -186 -188 -204 -205 -206 -207 0 
-4 -90 182 -180 -184 -185 -186 -188 -204 -205 -206 -207 -3 0 
-18 -19 -17 183 -180 -184 -185 -186 -188 -204 -205 -206 -207 -6 0 
-35 11 15 32 33 40 50 52 56 58 86 87 133 165 188 -180 -184 -185 -186 -204 -205 -206 -207 0 
-91 180 -184 -185 -186 -188 -204 -205 -206 -207 0 
-4 -47 183 -180 -184 -185 -186 -188 -204 -205 -206 -207 -6 0 
-92 180 -184 -185 -186 -188 -204 -205 -206 -207 0 
-93 180 -184 -185 -186 -188 -204 -205 -206 -207 0 
-37 -8 -91 -67 180 -184 -185 -186 -188 -204 -205 -206 -207 0 
-94 180 -184 -185 -186 -188 -204 -205 -206 -207 0 
-51 -95 14 27 34 41 61 69 100 102 128 131 134 137 138 151 188 -180 -184 -185 -186 -204 -205 -206 -207 0 
-15 11 32 33 35 40 50 52 56 58 86 87 133 165 -96 36 74 80 107 160 180 -184 -185 -186 -188 -204 -205 -206 -207 0 
-38 -67 180 -184 -185 -186 -188 -204 -205 -206 -207 0 
-97 143 -98 -99 154 180 -184 -185 -186 -188 -204 -205 -206 -207 0 
-100 14 27 34 41 61 69 95 102 128 131 134 137 138 151 180 -184 -185 -186 -188 -204 -205 -206 -207 0 
-101 28 66 180 -184 -185 -186 -188 -204 -205 -206 -207 0 
-102 14 27 34 41 61 69 95 100 128 131 134 137 138 151 180 -184 -185 -186 -188 -204 -205 -206 -207 0 
-103 184 -180 -185 -186 -188 -204 -205 -206 -207 0 
-104 136 184 -180 -185 -186 -188 -204 -205 -206 -207 0 
-1 2 119 180 -184 -185 -186 -188 -204 -205 -206 -207 0 
-38 -105 180 -184 -185 -186 -188 -204 -205 -206 -207 0 
-106 114 180 -184 -185 -186 -188 -204 -205 -206 -207 0 
-107 36 74 80 96 160 -105 180 -184 -185 -186 -188 -204 -205 -206 -207 0 
-108 110 196 -8 -180 -184 -185 -186 -188 -204 -205 -206 -207 0 
-109 197 -37 -180 -184 -185 -186 -188 -204 -205 -206 -207 0 
-110 108 198 -180 -184 -185 -186 -188 -204 -205 -206 -207 0 
-111 145 156 191 -89 -180 -184 -185 -186 -188 -204 -205 -206 -207 0 
-112 83 118 127 187 -43 -68 -180 -184 -185 -186 -188 -204 -205 -206 -207 0 
-113 199 -180 -184 -185 -186 -188 -204 -205 -206 -207 0 
-114 106 180 -184 -185 -186 -188 -204 -205 -206 -207 0 
-107 36 74 80 96 160 180 -184 -185 -186 -188 -204 -205 -206 -207 0 
-4 -6 182 -180 -184 -185 -186 -188 -204 -205 -206 -207 -3 0 
-19 181 -180 -184 -185 -186 -188 -204 -205 -206 -207 -4 0 
-115 180 -184 -185 -186 -188 -204 -205 -206 -207 0 
-70 26 65 149 162 180 -184 -185 -186 -188 -204 -205 -206 -207 0 
-116 180 -184 -185 -186 -188 -204 -205 -206 -207 0 
-117 180 -184 -185 -186 -188 -204 -205 -206 -207 0 
-4 -118 83 112 127 183 -180 -184 -185 -186 -188 -204 -205 -206 -207 -6 0 
-119 1 2 180 -184 -185 -186 -188 -204 -205 -206 -207 0 
-18 -3 181 -180 -184 -185 -186 -188 -204 -205 -206 -207 -4 0 
-4 -45 183 -180 -184 -185 -186 -188 -204 -205 -206 -207 -6 0 
-5 182 -180 -184 -185 -186 -188 -204 -205 -206 -207 -3 0 
-5 181 -180 -184 -185 -186 -188 -204 -205 -206 -207 -4 0 
-120 180 -184 -185 -186 -188 -204 -205 -206 -207 0 
-121 181 -180 -184 -185 -186 -188 -204 -205 -206 -207 -4 0 
-122 183 -180 -184 -185 -186 -188 -204 -205 -206 -207 -6 0 
-18 -19 -7 181 -180 -184 -185 -186 -188 -204 -205 -206 -207 -4 0 
-4 184 -180 -185 -186 -188 -204 -205 -206 -207 0 
-123 184 -180 -185 -186 -188 -204 -205 -206 -207 0 
-121 182 -180 -184 -185 -186 -188 -204 -205 -206 -207 -3 0 
-11 15 32 33 35 40 50 52 56 58 86 87 133 165 184 -180 -185 -186 -188 -204 -205 -206 -207 0 
-62 13 48 55 73 76 126 148 159 172 175 184 -180 -185 -186 -188 -204 -205 -206 -207 0 
-5 183 -180 -184 -185 -186 -188 -204 -205 -206 -207 -6 0 
-18 -39 10 -3 184 -180 -185 -186 -188 -204 -205 -206 -207 0 
-12 181 -180 -184 -185 -186 -188 -204 -205 -206 -207 -4 0 
-124 183 -180 -184 -185 -186 -188 -204 -205 -206 -207 -6 0 
-125 150 170 183 -180 -184 -185 -186 -188 -204 -205 -206 -207 -6 0 
-9 -39 10 -4 182 -180 -184 -185 -186 -188 -204 -205 -206 -207 -3 0 
-122 182 -180 -184 -185 -186 -188 -204 -205 -206 -207 -3 0 
-39 10 -4 182 -180 -184 -185 -186 -188 -204 -205 -206 -207 -3 0 
-52 11 15 32 33 35 40 50 56 58 86 87 133 165 200 -180 -184 -185 -186 -188 -204 -205 -206 -207 -51 0 
-46 42 -126 13 48 55 62 73 76 148 159 172 175 181 -180 -184 -185 -186 -188 -204 -205 -206 -207 -4 0 
-37 -4 -127 83 112 118 182 -180 -184 -185 -186 -188 -204 -205 -206 -207 -3 0 
-50 11 15 32 33 35 40 52 56 58 86 87 133 165 -16 -19 -37 -4 183 -180 -184 -185 -186 -188 -204 -205 -206 -207 -6 0 
-18 -4 182 -180 -184 -185 -186 -188 -204 -205 -206 -207 -3 0 
-128 14 27 34 41 61 69 95 100 102 131 134 137 138 151 180 -184 -185 -186 -188 -204 -205 -206 -207 0 
-19 -3 181 -180 -184 -185 -186 -188 -204 -205 -206 -207 -4 0 
-50 11 15 32 33 35 40 52 56 58 86 87 133 165 184 -180 -185 -186 -188 -204 -205 -206 -207 0 
-51 188 -180 -184 -185 -186 -204 -205 -206 -207 0 
-12 -122 183 -180 -184 -185 -186 -188 -204 -205 -206 -207 -6 0 
-8 -18 -3 181 -180 -184 -185 -186 -188 -204 -205 -206 -207 -4 0 
-129 -114 106 181 -180 -184 -185 -186 -188 -204 -205 -206 -207 -4 0 
-130 29 30 132 186 -180 -184 -185 -188 -204 -205 -206 -207 0 
-131 14 27 34 41 61 69 95 100 102 128 134 137 138 151 184 -180 -185 -186 -188 -204 -205 -206 -207 0 
-5 184 -180 -185 -186 -188 -204 -205 -206 -207 0 
-132 29 30 130 186 -180 -184 -185 -188 -204 -205 -206 -207 0 
-37 -133 11 15 32 33 35 40 50 52 56 58 86 87 165 -70 26 65 149 162 187 -43 -68 -180 -184 -185 -186 -188 -204 -205 -206 -207 0 
-54 -81 181 -180 -184 -185 -186 -188 -204 -205 -206 -207 -4 0 
-134 14 27 34 41 61 69 95 100 102 128 131 137 138 151 201 -180 -184 -185 -186 -188 -204 -205 -206 -207 0 
-135 22 202 -180 -184 -185 -186 -188 -204 -205 -206 -207 0 
-10 39 -67 187 -43 -68 -180 -184 -185 -186 -188 -204 -205 -206 -207 0 
-129 -136 104 181 -180 -184 -185 -186 -188 -204 -205 -206 -207 -4 0 
-12 183 -180 -184 -185 -186 -188 -204 -205 -206 -207 -6 0 
-137 14 27 34 41 61 69 95 100 102 128 131 134 138 151 188 -180 -184 -185 -186 -204 -205 -206 -207 0 
-138 14 27 34 41 61 69 95 100 102 128 131 134 137 151 188 -180 -184 -185 -186 -204 -205 -206 -207 0 
-8 -39 10 -4 182 -180 -184 -185 -186 -188 -204 -205 -206 -207 -3 0 
-8 -18 -4 182 -180 -184 -185 -186 -188 -204 -205 -206 -207 -3 0 
-2 1 119 180 -184 -185 -186 -188 -204 -205 -206 -207 0 
-139 -140 208 -99 154 184 -180 -185 -186 -188 -204 -205 -206 -207 0 
-141 180 -184 -185 -186 -188 -204 -205 -206 -207 0 
-142 184 -180 -185 -186 -188 -204 -205 -206 -207 0 
-62 13 48 55 73 76 126 148 159 172 175 183 -180 -184 -185 -186 -188 -204 -205 -206 -207 -6 0 
-77 -11 15 32 33 35 40 50 52 56 58 86 87 133 165 182 -180 -184 -185 -186 -188 -204 -205 -206 -207 -3 0 
-143 97 -12 183 -180 -184 -185 -186 -188 -204 -205 -206 -207 -6 0 
-5 188 -180 -184 -185 -186 -204 -205 -206 -207 0 
-39 10 -3 184 -180 -185 -186 -188 -204 -205 -206 -207 0 
-144 184 -180 -185 -186 -188 -204 -205 -206 -207 0 
-80 36 74 96 107 160 203 -180 -184 -185 -186 -188 -204 -205 -206 -207 0 
-140 208 190 -180 -184 -185 -186 -188 -204 -205 -206 -207 -20 -146 0 
-69 14 27 34 41 61 95 100 102 128 131 134 137 138 151 203 -180 -184 -185 -186 -188 -204 -205 -206 -207 0 
-145 111 156 190 -180 -184 -185 -186 -188 -204 -205 -206 -207 -20 -146 0 
-146 20 204 -180 -184 -185 -186 -188 -205 -206 -207 0 
-147 -108 110 196 -8 -180 -184 -185 -186 -188 -204 -205 -206 -207 0 
-1 2 119 180 -184 -185 -186 -188 -204 -205 -206 -207 0 
-148 13 48 55 62 73 76 126 159 172 175 193 -147 -180 -184 -185 -186 -188 -204 -205 -206 -207 0 
-148 13 48 55 62 73 76 126 159 172 175 192 -180 -184 -185 -186 -188 -204 -205 -206 -207 0 
-148 13 48 55 62 73 76 126 159 172 175 187 -43 -68 -180 -184 -185 -186 -188 -204 -205 -206 -207 0 
-149 26 65 70 162 184 -180 -185 -186 -188 -204 -205 -206 -207 0 
-62 13 48 55 73 76 126 148 159 172 175 -150 125 170 181 -180 -184 -185 -186 -188 -204 -205 -206 -207 -4 0 
-18 -151 14 27 34 41 61 69 95 100 102 128 131 134 137 138 -19 182 -180 -184 -185 -186 -188 -204 -205 -206 -207 -3 0 
-10 39 -152 187 -43 -68 -180 -184 -185 -186 -188 -204 -205 -206 -207 0 
-148 13 48 55 62 73 76 126 159 172 175 180 -184 -185 -186 -188 -204 -205 -206 -207 0 
-153 -99 154 184 -180 -185 -186 -188 -204 -205 -206 -207 0 
-154 99 -99 154 184 -180 -185 -186 -188 -204 -205 -206 -207 0 
-74 36 80 96 107 160 180 -184 -185 -186 -188 -204 -205 -206 -207 0 
-155 166 180 -184 -185 -186 -188 -204 -205 -206 -207 0 
-152 180 -184 -185 -186 -188 -204 -205 -206 -207 0 
-156 111 145 -107 36 74 80 96 160 180 -184 -185 -186 -188 -204 -205 -206 -207 0 
-9 -13 48 55 62 73 76 126 148 159 172 175 180 -184 -185 -186 -188 -204 -205 -206 -207 0 
-42 46 -10 39 180 -184 -185 -186 -188 -204 -205 -206 -207 0 
-97 143 -157 180 -184 -185 -186 -188 -204 -205 -206 -207 0 
-6 -25 88 182 -180 -184 -185 -186 -188 -204 -205 -206 -207 -3 0 
-25 88 -158 84 183 -180 -184 -185 -186 -188 -204 -205 -206 -207 -6 0 
-1 2 119 180 -184 -185 -186 -188 -204 -205 -206 -207 0 
-159 13 48 55 62 73 76 126 148 172 175 180 -184 -185 -186 -188 -204 -205 -206 -207 0 
-160 36 74 80 96 107 187 -43 -68 -180 -184 -185 -186 -188 -204 -205 -206 -207 0 
-21 190 -180 -184 -185 -186 -188 -204 -205 -206 -207 -20 -146 0 
-161 190 -180 -184 -185 -186 -188 -204 -205 -206 -207 -20 -146 0 
-78 184 -180 -185 -186 -188 -204 -205 -206 -207 0 
-18 -67 180 -184 -185 -186 -188 -204 -205 -206 -207 0 
-162 26 65 70 149 205 -180 -184 -185 -186 -188 -204 -206 -207 0 
-163 206 -180 -184 -185 -186 -188 -204 -205 -207 0 
-164 206 -180 -184 -185 -186 -188 -204 -205 -207 0 
-78 -165 11 15 32 33 35 40 50 52 56 58 86 87 133 206 -180 -184 -185 -186 -188 -204 -205 -207 0 
-166 155 180 -184 -185 -186 -188 -204 -205 -206 -207 0 
-140 208 -99 154 184 -180 -185 -186 -188 -204 -205 -206 -207 0 
-167 196 -8 -180 -184 -185 -186 -188 -204 -205 -206 -207 0 
-168 180 -184 -185 -186 -188 -204 -205 -206 -207 0 
-169 197 -37 -180 -184 -185 -186 -188 -204 -205 -206 -207 0 
-19 -17 183 -180 -184 -185 -186 -188 -204 -205 -206 -207 -6 0 
-37 -46 42 -3 181 -180 -184 -185 -186 -188 -204 -205 -206 -207 -4 0 
-18 -16 -3 181 -180 -184 -185 -186 -188 -204 -205 -206 -207 -4 0 
-170 125 150 183 -180 -184 -185 -186 -188 -204 -205 -206 -207 -6 0 
-171 -172 13 48 55 62 73 76 126 148 159 175 -95 14 27 34 41 61 69 100 102 128 131 134 137 138 151 -52 11 15 32 33 35 40 50 56 58 86 87 133 165 200 -180 -184 -185 -186 -188 -204 -205 -206 -207 -51 0 
-19 -4 182 -180 -184 -185 -186 -188 -204 -205 -206 -207 -3 0 
-173 207 -180 -184 -185 -186 -188 -204 -205 -206 0 
-16 -17 -22 135 -174 183 -180 -184 -185 -186 -188 -204 -205 -206 -207 -6 0 
-46 42 -4 184 -180 -185 -186 -188 -204 -205 -206 -207 0 
-27 14 34 41 61 69 95 100 102 128 131 134 137 138 151 182 -180 -184 -185 -186 -188 -204 -205 -206 -207 -3 0 
-26 65 70 149 162 -11 15 32 33 35 40 50 52 56 58 86 87 133 165 184 -180 -185 -186 -188 -204 -205 -206 -207 0 
-79 180 -184 -185 -186 -188 -204 -205 -206 -207 0 
-175 13 48 55 62 73 76 126 148 159 172 184 -180 -185 -186 -188 -204 -205 -206 -207 0 
-176 59 184 -180 -185 -186 -188 -204 -205 -206 -207 0 
-37 -18 -4 182 -180 -184 -185 -186 -188 -204 -205 -206 -207 -3 0 
-177 -52 11 15 32 33 35 40 50 56 58 86 87 133 165 200 -180 -184 -185 -186 -188 -204 -205 -206 -207 -51 0 
-37 -17 -45 183 -180 -184 -185 -186 -188 -204 -205 -206 -207 -6 0 
-38 -97 143 180 -184 -185 -186 -188 -204 -205 -206 -207 0 
-19 -17 -54 183 -180 -184 -185 -186 -188 -204 -205 -206 -207 -6 0 
-93 208 -140 0 
-171 -95 14 27 34 41 61 69 100 102 128 131 134 137 138 151 -52 11 15 32 33 35 40 50 56 58 86 87 133 165 200 -180 -184 -185 -186 -188 -204 -205 -206 -207 -51 0 
-8 -46 42 -4 182 -180 -184 -185 -186 -188 -204 -205 -206 -207 -3 0 
-6 -77 -16 -19 -12 182 -180 -184 -185 -186 -188 -204 -205 -206 -207 -3 0 
-96 36 74 80 107 160 -178 64 186 -180 -184 -185 -188 -204 -205 -206 -207 0 
-96 36 74 80 107 160 186 -180 -184 -185 -188 -204 -205 -206 -207 0 
-1 2 119 180 -184 -185 -186 -188 -204 -205 -206 -207 0 
-153 184 -180 -185 -186 -188 -204 -205 -206 -207 0 
-109 197 -37 -180 -184 -185 -186 -188 -204 -205 -206 -207 0 
-179 184 -180 -185 -186 -188 -204 -205 -206 -207 0 
-97 143 -179 180 -184 -185 -186 -188 -204 -205 -206 -207 0 
